words_hard_train/3734.qaiger
aag 116 15 0 1 101
2
4
8
12
16
20
24
28
36
42
50
68
90
112
134
232
6 3 5
10 6 9
14 10 13
18 14 17
22 18 21
26 22 25
30 26 29
32 27 28
34 31 33
38 36 4
40 39 7
44 42 2
46 44 37
48 40 47
52 48 51
54 50 9
56 51 8
58 55 57
60 7 8
62 61 11
64 59 62
66 53 65
70 68 13
72 69 12
74 71 73
76 11 12
78 77 15
80 74 79
82 75 78
84 81 83
86 67 84
88 87 83
92 90 17
94 91 16
96 93 95
98 15 16
100 99 19
102 96 101
104 97 100
106 103 105
108 89 106
110 109 105
114 20 113
116 21 112
118 115 117
120 19 20
122 121 23
124 118 123
126 119 122
128 125 127
130 111 128
132 131 127
136 24 135
138 25 134
140 137 139
142 23 24
144 143 27
146 140 145
148 141 144
150 147 149
152 133 150
154 153 149
156 34 155
158 35 154
160 157 159
162 49 7
164 163 51
166 162 50
168 165 167
170 168 28
172 47 134
174 45 36
176 172 175
178 43 112
180 177 179
182 36 135
184 181 183
186 113 135
188 184 187
190 168 29
192 188 191
194 66 85
196 195 87
198 193 196
200 88 107
202 201 109
204 198 202
206 110 129
208 207 131
210 204 208
212 170 210
214 132 151
216 215 153
218 212 216
220 160 219
222 192 197
224 222 203
226 224 29
228 226 209
230 228 217
232 221 231
i0 1 x1[0]
i1 1 x1[1]
i2 1 x1[2]
i3 1 x1[3]
i4 1 x1[4]
i5 1 x1[5]
i6 1 x1[6]
i7 2 y1[7]
i8 2 y1[1]
i9 2 y1[0]
i10 2 y1[2]
i11 2 y1[3]
i12 2 y1[4]
i13 2 y1[5]
i14 2 y1[6]
o0 bv[0]
c
simplified
  >=
    subtract
      xor
        1 x1
        2 y1
      1 x1
    >> 5
      2 y1
