words_hard_train/3734.qaiger.qdimacs
p cnf 116 304
a 1 2 4 6 8 10 12 0
e 3 5 7 9 11 13 14 15 16 17 18 19 20 21 22 23 24 25 26 27 28 29 30 31 32 33 34 35 36 37 38 39 40 41 42 43 44 45 46 47 48 49 50 51 52 53 54 55 56 57 58 59 60 61 62 63 64 65 66 67 68 69 70 71 72 73 74 75 76 77 78 79 80 81 82 83 84 85 86 87 88 89 90 91 92 93 94 95 96 97 98 99 100 101 102 103 104 105 106 107 108 109 110 111 112 113 114 115 116 0
1 2 3 0
-1 -3 0
-2 -3 0
-3 4 5 0
3 -5 0
-4 -5 0
-5 6 7 0
5 -7 0
-6 -7 0
-7 8 9 0
7 -9 0
-8 -9 0
-9 10 11 0
9 -11 0
-10 -11 0
-11 12 13 0
11 -13 0
-12 -13 0
-13 14 15 0
13 -15 0
-14 -15 0
13 -14 16 0
-13 -16 0
14 -16 0
15 16 17 0
-15 -17 0
-16 -17 0
-18 -2 19 0
18 -19 0
2 -19 0
19 3 20 0
-19 -20 0
-3 -20 0
-21 -1 22 0
21 -22 0
1 -22 0
-22 18 23 0
22 -23 0
-18 -23 0
-20 23 24 0
20 -24 0
-23 -24 0
-24 25 26 0
24 -26 0
-25 -26 0
-25 4 27 0
25 -27 0
-4 -27 0
25 -4 28 0
-25 -28 0
4 -28 0
27 28 29 0
-27 -29 0
-28 -29 0
3 -4 30 0
-3 -30 0
4 -30 0
30 5 31 0
-30 -31 0
-5 -31 0
29 -31 32 0
-29 -32 0
31 -32 0
26 32 33 0
-26 -33 0
-32 -33 0
-34 6 35 0
34 -35 0
-6 -35 0
34 -6 36 0
-34 -36 0
6 -36 0
35 36 37 0
-35 -37 0
-36 -37 0
5 -6 38 0
-5 -38 0
6 -38 0
38 7 39 0
-38 -39 0
-7 -39 0
-37 39 40 0
37 -40 0
-39 -40 0
37 -39 41 0
-37 -41 0
39 -41 0
40 41 42 0
-40 -42 0
-41 -42 0
33 -42 43 0
-33 -43 0
42 -43 0
43 41 44 0
-43 -44 0
-41 -44 0
-45 8 46 0
45 -46 0
-8 -46 0
45 -8 47 0
-45 -47 0
8 -47 0
46 47 48 0
-46 -48 0
-47 -48 0
7 -8 49 0
-7 -49 0
8 -49 0
49 9 50 0
-49 -50 0
-9 -50 0
-48 50 51 0
48 -51 0
-50 -51 0
48 -50 52 0
-48 -52 0
50 -52 0
51 52 53 0
-51 -53 0
-52 -53 0
44 -53 54 0
-44 -54 0
53 -54 0
54 52 55 0
-54 -55 0
-52 -55 0
-10 56 57 0
10 -57 0
-56 -57 0
10 -56 58 0
-10 -58 0
56 -58 0
57 58 59 0
-57 -59 0
-58 -59 0
9 -10 60 0
-9 -60 0
10 -60 0
60 11 61 0
-60 -61 0
-11 -61 0
-59 61 62 0
59 -62 0
-61 -62 0
59 -61 63 0
-59 -63 0
61 -63 0
62 63 64 0
-62 -64 0
-63 -64 0
55 -64 65 0
-55 -65 0
64 -65 0
65 63 66 0
-65 -66 0
-63 -66 0
-12 67 68 0
12 -68 0
-67 -68 0
12 -67 69 0
-12 -69 0
67 -69 0
68 69 70 0
-68 -70 0
-69 -70 0
11 -12 71 0
-11 -71 0
12 -71 0
71 13 72 0
-71 -72 0
-13 -72 0
-70 72 73 0
70 -73 0
-72 -73 0
70 -72 74 0
-70 -74 0
72 -74 0
73 74 75 0
-73 -75 0
-74 -75 0
66 -75 76 0
-66 -76 0
75 -76 0
76 74 77 0
-76 -77 0
-74 -77 0
-17 77 78 0
17 -78 0
-77 -78 0
17 -77 79 0
-17 -79 0
77 -79 0
78 79 80 0
-78 -80 0
-79 -80 0
24 3 81 0
-24 -81 0
-3 -81 0
81 25 82 0
-81 -82 0
-25 -82 0
-81 -25 83 0
81 -83 0
25 -83 0
82 83 84 0
-82 -84 0
-83 -84 0
-84 -14 85 0
84 -85 0
14 -85 0
23 -67 86 0
-23 -86 0
67 -86 0
22 -18 87 0
-22 -87 0
18 -87 0
-86 87 88 0
86 -88 0
-87 -88 0
21 -56 89 0
-21 -89 0
56 -89 0
88 89 90 0
-88 -90 0
-89 -90 0
-18 67 91 0
18 -91 0
-67 -91 0
90 91 92 0
-90 -92 0
-91 -92 0
56 67 93 0
-56 -93 0
-67 -93 0
-92 93 94 0
92 -94 0
-93 -94 0
-84 14 95 0
84 -95 0
-14 -95 0
-94 95 96 0
94 -96 0
-95 -96 0
-33 42 97 0
33 -97 0
-42 -97 0
97 43 98 0
-97 -98 0
-43 -98 0
96 -98 99 0
-96 -99 0
98 -99 0
-44 53 100 0
44 -100 0
-53 -100 0
100 54 101 0
-100 -101 0
-54 -101 0
-99 -101 102 0
99 -102 0
101 -102 0
-55 64 103 0
55 -103 0
-64 -103 0
103 65 104 0
-103 -104 0
-65 -104 0
-102 -104 105 0
102 -105 0
104 -105 0
-85 -105 106 0
85 -106 0
105 -106 0
-66 75 107 0
66 -107 0
-75 -107 0
107 76 108 0
-107 -108 0
-76 -108 0
-106 -108 109 0
106 -109 0
108 -109 0
-80 109 110 0
80 -110 0
-109 -110 0
-96 98 111 0
96 -111 0
-98 -111 0
-111 101 112 0
111 -112 0
-101 -112 0
-112 14 113 0
112 -113 0
-14 -113 0
-113 104 114 0
113 -114 0
-104 -114 0
-114 108 115 0
114 -115 0
-108 -115 0
110 115 116 0
-110 -116 0
-115 -116 0
116 0
